NAME : rnd6_20.tsp
TYPE : TSP
DIMENSION : 20
EDGE_WEIGHT_TYPE : EUC_2D
NODE_COORD_SECTION
1 154 967
2 886 475
3 977 517
4 749 828
5 744 163
6 155 250
7 437 923
8 769 546
9 827 886
10 355 842
11 976 597
12 264 238
13 461 414
14 119 779
15 990 809
16 696 227
17 114 751
18 454 983
19 325 393
20 466 466
